(set-info :smt-lib-version 2.6)
(set-logic UF)
(set-info :source |Benchmarks from the paper: "Extending Sledgehammer with SMT Solvers" by Jasmin Blanchette, Sascha Bohme, and Lawrence C. Paulson, CADE 2011.  Translated to SMT2 by Andrew Reynolds and Morgan Deters.|)
(set-info :category "industrial")
(set-info :status unknown)
(declare-sort S1 0)
(declare-sort S2 0)
(declare-sort S3 0)
(declare-sort S4 0)
(declare-sort S5 0)
(declare-sort S6 0)
(declare-sort S7 0)
(declare-sort S8 0)
(declare-sort S9 0)
(declare-sort S10 0)
(declare-sort S11 0)
(declare-sort S12 0)
(declare-sort S13 0)
(declare-sort S14 0)
(declare-sort S15 0)
(declare-sort S16 0)
(declare-sort S17 0)
(declare-sort S18 0)
(declare-sort S19 0)
(declare-sort S20 0)
(declare-sort S21 0)
(declare-sort S22 0)
(declare-sort S23 0)
(declare-sort S24 0)
(declare-sort S25 0)
(declare-sort S26 0)
(declare-sort S27 0)
(declare-sort S28 0)
(declare-sort S29 0)
(declare-sort S30 0)
(declare-sort S31 0)
(declare-sort S32 0)
(declare-sort S33 0)
(declare-sort S34 0)
(declare-sort S35 0)
(declare-sort S36 0)
(declare-sort S37 0)
(declare-sort S38 0)
(declare-sort S39 0)
(declare-sort S40 0)
(declare-sort S41 0)
(declare-sort S42 0)
(declare-fun f1 () S1)
(declare-fun f2 () S1)
(declare-fun f3 (S2 S3) S4)
(declare-fun f4 (S5 S2) S2)
(declare-fun f5 (S6 S2) S5)
(declare-fun f6 () S6)
(declare-fun f7 (S7 S4) S4)
(declare-fun f8 (S8 S4) S7)
(declare-fun f9 () S8)
(declare-fun f10 (S9 S3) S3)
(declare-fun f11 (S10 S9) S9)
(declare-fun f12 (S11 S9) S10)
(declare-fun f13 () S11)
(declare-fun f14 (S12 S3) S9)
(declare-fun f15 () S12)
(declare-fun f16 (S13 S3) S14)
(declare-fun f17 (S15 S13) S13)
(declare-fun f18 (S16 S13) S15)
(declare-fun f19 () S16)
(declare-fun f20 (S17 S14) S14)
(declare-fun f21 (S18 S14) S17)
(declare-fun f22 () S18)
(declare-fun f23 (S19 S3) S20)
(declare-fun f24 (S21 S19) S19)
(declare-fun f25 (S19) S21)
(declare-fun f26 (S20 S20) S20)
(declare-fun f27 (S22 S3) S2)
(declare-fun f28 (S23 S2) S22)
(declare-fun f29 () S23)
(declare-fun f30 (S24 S9) S12)
(declare-fun f31 () S24)
(declare-fun f32 (S25 S3) S13)
(declare-fun f33 (S26 S13) S25)
(declare-fun f34 () S26)
(declare-fun f35 (S27 S3) S19)
(declare-fun f36 (S19) S27)
(declare-fun f37 (S28 S3) S5)
(declare-fun f38 () S28)
(declare-fun f39 () S2)
(declare-fun f40 () S4)
(declare-fun f41 () S9)
(declare-fun f42 () S3)
(declare-fun f43 () S13)
(declare-fun f44 () S14)
(declare-fun f45 () S19)
(declare-fun f46 () S20)
(declare-fun f47 (S19 S29) S20)
(declare-fun f48 () S19)
(declare-fun f49 (S30 S3) S29)
(declare-fun f50 (S3) S30)
(declare-fun f51 (S31 S14) S3)
(declare-fun f52 () S31)
(declare-fun f53 () S17)
(declare-fun f54 () S17)
(declare-fun f55 () S14)
(declare-fun f56 () S3)
(declare-fun f57 () S4)
(declare-fun f58 (S32 S14) S4)
(declare-fun f59 () S32)
(declare-fun f60 () S14)
(declare-fun f61 () S17)
(declare-fun f62 (S33 S29) S14)
(declare-fun f63 (S34 S13) S33)
(declare-fun f64 () S34)
(declare-fun f65 (S35 S29) S3)
(declare-fun f66 (S36 S9) S35)
(declare-fun f67 () S36)
(declare-fun f68 (S37 S29) S4)
(declare-fun f69 (S38 S2) S37)
(declare-fun f70 () S38)
(declare-fun f71 (S40 S14) S39)
(declare-fun f72 () S40)
(declare-fun f73 (S42 S14) S41)
(declare-fun f74 () S42)
(declare-fun f75 () S39)
(declare-fun f76 () S41)
(assert (not (= f1 f2)))
(assert (forall ((?v0 S2) (?v1 S2) (?v2 S3)) (= (f3 (f4 (f5 f6 ?v0) ?v1) ?v2) (f7 (f8 f9 (f3 ?v0 ?v2)) (f3 ?v1 ?v2)))))
(assert (forall ((?v0 S9) (?v1 S9) (?v2 S3)) (= (f10 (f11 (f12 f13 ?v0) ?v1) ?v2) (f10 (f14 f15 (f10 ?v0 ?v2)) (f10 ?v1 ?v2)))))
(assert (forall ((?v0 S13) (?v1 S13) (?v2 S3)) (= (f16 (f17 (f18 f19 ?v0) ?v1) ?v2) (f20 (f21 f22 (f16 ?v0 ?v2)) (f16 ?v1 ?v2)))))
(assert (forall ((?v0 S19) (?v1 S19) (?v2 S3)) (= (f23 (f24 (f25 ?v0) ?v1) ?v2) (f26 (f23 ?v0 ?v2) (f23 ?v1 ?v2)))))
(assert (forall ((?v0 S2) (?v1 S3) (?v2 S3)) (= (f3 (f27 (f28 f29 ?v0) ?v1) ?v2) (f3 ?v0 (f10 (f14 f15 ?v2) ?v1)))))
(assert (forall ((?v0 S9) (?v1 S3) (?v2 S3)) (= (f10 (f14 (f30 f31 ?v0) ?v1) ?v2) (f10 ?v0 (f10 (f14 f15 ?v2) ?v1)))))
(assert (forall ((?v0 S13) (?v1 S3) (?v2 S3)) (= (f16 (f32 (f33 f34 ?v0) ?v1) ?v2) (f16 ?v0 (f10 (f14 f15 ?v2) ?v1)))))
(assert (forall ((?v0 S19) (?v1 S3) (?v2 S3)) (= (f23 (f35 (f36 ?v0) ?v1) ?v2) (f23 ?v0 (f10 (f14 f15 ?v2) ?v1)))))
(assert (forall ((?v0 S3) (?v1 S2) (?v2 S3)) (= (f3 (f4 (f37 f38 ?v0) ?v1) ?v2) (f3 ?v1 (f10 (f14 f15 ?v2) ?v0)))))
(assert (forall ((?v0 S3)) (= (f3 f39 ?v0) f40)))
(assert (forall ((?v0 S3)) (= (f10 f41 ?v0) f42)))
(assert (forall ((?v0 S3)) (= (f16 f43 ?v0) f44)))
(assert (forall ((?v0 S3)) (= (f23 f45 ?v0) f46)))
(assert (let ((?v_1 (f20 f54 f55))) (let ((?v_0 (f20 f53 ?v_1))) (not (= (f47 f48 (f49 (f50 f42) (f51 f52 (f20 f53 ?v_0)))) (f26 (f26 (f26 (f23 f48 f42) (f23 f48 f56)) (f23 f48 (f51 f52 ?v_0))) (f23 f48 (f51 f52 (f20 f54 ?v_1)))))))))
(assert (= (f7 (f8 f9 f57) f57) (f58 f59 (f20 f53 (f20 f54 f55)))))
(assert (= (f20 (f21 f22 f60) f60) (f20 f61 (f20 f53 (f20 f54 f55)))))
(assert (= (f7 (f8 f9 f57) f57) (f58 f59 (f20 f53 (f20 f54 f55)))))
(assert (= (f10 (f14 f15 f56) f56) (f51 f52 (f20 f53 (f20 f54 f55)))))
(assert (= (f20 (f21 f22 f60) f60) (f20 f61 (f20 f53 (f20 f54 f55)))))
(assert (forall ((?v0 S14)) (= (f7 (f8 f9 f57) (f58 f59 ?v0)) (f58 f59 (f20 (f21 f22 (f20 f54 f55)) ?v0)))))
(assert (forall ((?v0 S14)) (= (f20 (f21 f22 f60) (f20 f61 ?v0)) (f20 f61 (f20 (f21 f22 (f20 f54 f55)) ?v0)))))
(assert (forall ((?v0 S14)) (= (f7 (f8 f9 (f58 f59 ?v0)) f57) (f58 f59 (f20 (f21 f22 ?v0) (f20 f54 f55))))))
(assert (forall ((?v0 S14)) (= (f20 (f21 f22 (f20 f61 ?v0)) f60) (f20 f61 (f20 (f21 f22 ?v0) (f20 f54 f55))))))
(assert (forall ((?v0 S19) (?v1 S3) (?v2 S3)) (let ((?v_0 (f50 f42))) (= (f47 ?v0 (f49 ?v_0 (f10 (f14 f15 ?v1) ?v2))) (f26 (f47 (f35 (f36 ?v0) ?v2) (f49 ?v_0 ?v1)) (f47 ?v0 (f49 ?v_0 ?v2)))))))
(assert (forall ((?v0 S13) (?v1 S3) (?v2 S3)) (let ((?v_0 (f50 f42)) (?v_1 (f63 f64 ?v0))) (= (f62 ?v_1 (f49 ?v_0 (f10 (f14 f15 ?v1) ?v2))) (f20 (f21 f22 (f62 (f63 f64 (f32 (f33 f34 ?v0) ?v2)) (f49 ?v_0 ?v1))) (f62 ?v_1 (f49 ?v_0 ?v2)))))))
(assert (forall ((?v0 S9) (?v1 S3) (?v2 S3)) (let ((?v_0 (f50 f42)) (?v_1 (f66 f67 ?v0))) (= (f65 ?v_1 (f49 ?v_0 (f10 (f14 f15 ?v1) ?v2))) (f10 (f14 f15 (f65 (f66 f67 (f14 (f30 f31 ?v0) ?v2)) (f49 ?v_0 ?v1))) (f65 ?v_1 (f49 ?v_0 ?v2)))))))
(assert (forall ((?v0 S2) (?v1 S3) (?v2 S3)) (let ((?v_0 (f50 f42)) (?v_1 (f69 f70 ?v0))) (= (f68 ?v_1 (f49 ?v_0 (f10 (f14 f15 ?v1) ?v2))) (f7 (f8 f9 (f68 (f69 f70 (f27 (f28 f29 ?v0) ?v2)) (f49 ?v_0 ?v1))) (f68 ?v_1 (f49 ?v_0 ?v2)))))))
(assert (= f56 (f51 f52 (f20 f54 f55))))
(assert (= (f51 f52 (f20 f54 f55)) f56))
(assert (= f57 (f58 f59 (f20 f54 f55))))
(assert (= f60 (f20 f61 (f20 f54 f55))))
(assert (= (f58 f59 (f20 f54 f55)) f57))
(assert (= (f20 f61 (f20 f54 f55)) f60))
(assert (= (f58 f59 (f20 f54 f55)) f57))
(assert (= (f51 f52 (f20 f54 f55)) f56))
(assert (= (f20 f61 (f20 f54 f55)) f60))
(assert (forall ((?v0 S14)) (let ((?v_0 (f58 f59 ?v0))) (= (f58 f59 (f20 f54 ?v0)) (f7 (f8 f9 (f7 (f8 f9 f57) ?v_0)) ?v_0)))))
(assert (forall ((?v0 S14)) (let ((?v_0 (f20 f61 ?v0))) (= (f20 f61 (f20 f54 ?v0)) (f20 (f21 f22 (f20 (f21 f22 f60) ?v_0)) ?v_0)))))
(assert (forall ((?v0 S14)) (let ((?v_0 (f20 f61 ?v0))) (= (f20 f61 (f20 f53 ?v0)) (f20 (f21 f22 (f20 (f21 f22 f44) ?v_0)) ?v_0)))))
(assert (forall ((?v0 S14)) (let ((?v_0 (f58 f59 ?v0))) (= (f58 f59 (f20 f53 ?v0)) (f7 (f8 f9 (f7 (f8 f9 f40) ?v_0)) ?v_0)))))
(assert (forall ((?v0 S14)) (not (= (f20 (f21 f22 (f20 (f21 f22 f60) ?v0)) ?v0) f44))))
(assert (= f44 (f20 f61 f55)))
(assert (forall ((?v0 S14)) (= (f20 f54 ?v0) (f20 (f21 f22 (f20 (f21 f22 f60) ?v0)) ?v0))))
(assert (forall ((?v0 S14)) (= (f20 (f21 f22 f44) ?v0) ?v0)))
(assert (forall ((?v0 S14)) (= (f20 (f21 f22 ?v0) f44) ?v0)))
(assert (forall ((?v0 S14) (?v1 S14)) (= (f20 (f21 f22 ?v0) ?v1) (f20 (f21 f22 ?v1) ?v0))))
(assert (forall ((?v0 S14) (?v1 S14) (?v2 S14)) (let ((?v_1 (f21 f22 ?v0)) (?v_0 (f21 f22 ?v1))) (= (f20 ?v_1 (f20 ?v_0 ?v2)) (f20 ?v_0 (f20 ?v_1 ?v2))))))
(assert (forall ((?v0 S14) (?v1 S14)) (= (f20 (f21 f22 (f20 f61 ?v0)) (f20 f61 ?v1)) (f20 f61 (f20 (f21 f22 ?v0) ?v1)))))
(assert (forall ((?v0 S14) (?v1 S14) (?v2 S14)) (let ((?v_0 (f21 f22 ?v0))) (= (f20 (f21 f22 (f20 ?v_0 ?v1)) ?v2) (f20 ?v_0 (f20 (f21 f22 ?v1) ?v2))))))
(assert (forall ((?v0 S3) (?v1 S3) (?v2 S2)) (let ((?v_0 (f50 f42)) (?v_1 (f69 f70 ?v2))) (= (f68 ?v_1 (f49 ?v_0 (f10 (f14 f15 ?v1) ?v0))) (f7 (f8 f9 (f68 (f69 f70 (f4 (f37 f38 ?v0) ?v2)) (f49 ?v_0 ?v1))) (f68 ?v_1 (f49 ?v_0 ?v0)))))))
(assert (forall ((?v0 S14)) (= (f20 (f21 f22 ?v0) f55) ?v0)))
(assert (forall ((?v0 S14)) (= (f20 (f21 f22 f55) ?v0) ?v0)))
(assert (forall ((?v0 S14) (?v1 S14)) (= (f20 (f21 f22 (f20 f53 ?v0)) (f20 f53 ?v1)) (f20 f53 (f20 (f21 f22 ?v0) ?v1)))))
(assert (forall ((?v0 S14)) (= (f20 f53 ?v0) (f20 (f21 f22 ?v0) ?v0))))
(assert (= f55 f44))
(assert (= f60 (f20 f61 (f20 f54 f55))))
(assert (forall ((?v0 S14) (?v1 S14)) (= (f20 (f21 f22 (f20 f54 ?v0)) (f20 f53 ?v1)) (f20 f54 (f20 (f21 f22 ?v0) ?v1)))))
(assert (forall ((?v0 S14) (?v1 S14)) (= (f20 (f21 f22 (f20 f53 ?v0)) (f20 f54 ?v1)) (f20 f54 (f20 (f21 f22 ?v0) ?v1)))))
(assert (forall ((?v0 S14) (?v1 S14)) (= (= (f58 f59 ?v0) (f58 f59 ?v1)) (= ?v0 ?v1))))
(assert (forall ((?v0 S14) (?v1 S14)) (= (= (f20 f61 ?v0) (f20 f61 ?v1)) (= ?v0 ?v1))))
(assert (forall ((?v0 S14) (?v1 S4)) (let ((?v_0 (f58 f59 ?v0))) (= (= ?v_0 ?v1) (= ?v1 ?v_0)))))
(assert (forall ((?v0 S14) (?v1 S3)) (let ((?v_0 (f51 f52 ?v0))) (= (= ?v_0 ?v1) (= ?v1 ?v_0)))))
(assert (forall ((?v0 S14) (?v1 S14)) (let ((?v_0 (f20 f61 ?v0))) (= (= ?v_0 ?v1) (= ?v1 ?v_0)))))
(assert (forall ((?v0 S14) (?v1 S39)) (let ((?v_0 (f71 f72 ?v0))) (= (= ?v_0 ?v1) (= ?v1 ?v_0)))))
(assert (forall ((?v0 S14) (?v1 S41)) (let ((?v_0 (f73 f74 ?v0))) (= (= ?v_0 ?v1) (= ?v1 ?v_0)))))
(assert (forall ((?v0 S14) (?v1 S14)) (= (= (f20 f54 ?v0) (f20 f54 ?v1)) (= ?v0 ?v1))))
(assert (= (= f55 f55) true))
(assert (forall ((?v0 S14) (?v1 S14)) (= (= (f20 f53 ?v0) (f20 f53 ?v1)) (= ?v0 ?v1))))
(assert (= (f10 (f14 f15 f56) f56) (f51 f52 (f20 f53 (f20 f54 f55)))))
(assert (forall ((?v0 S14)) (= (= (f20 (f21 f22 ?v0) ?v0) f44) (= ?v0 f44))))
(assert (forall ((?v0 S4)) (= (= (f7 (f8 f9 ?v0) ?v0) f40) (= ?v0 f40))))
(assert (forall ((?v0 S14) (?v1 S14) (?v2 S14)) (= (f20 (f21 f22 (f20 f61 ?v0)) (f20 (f21 f22 (f20 f61 ?v1)) ?v2)) (f20 (f21 f22 (f20 f61 (f20 (f21 f22 ?v0) ?v1))) ?v2))))
(assert (forall ((?v0 S14) (?v1 S14) (?v2 S4)) (= (f7 (f8 f9 (f58 f59 ?v0)) (f7 (f8 f9 (f58 f59 ?v1)) ?v2)) (f7 (f8 f9 (f58 f59 (f20 (f21 f22 ?v0) ?v1))) ?v2))))
(assert (forall ((?v0 S14) (?v1 S14)) (= (f20 (f21 f22 (f20 f61 ?v0)) (f20 f61 ?v1)) (f20 f61 (f20 (f21 f22 ?v0) ?v1)))))
(assert (forall ((?v0 S14) (?v1 S14)) (= (f7 (f8 f9 (f58 f59 ?v0)) (f58 f59 ?v1)) (f58 f59 (f20 (f21 f22 ?v0) ?v1)))))
(assert (forall ((?v0 S14) (?v1 S14)) (= (f20 f61 (f20 (f21 f22 ?v0) ?v1)) (f20 (f21 f22 (f20 f61 ?v0)) (f20 f61 ?v1)))))
(assert (forall ((?v0 S14) (?v1 S14)) (= (f58 f59 (f20 (f21 f22 ?v0) ?v1)) (f7 (f8 f9 (f58 f59 ?v0)) (f58 f59 ?v1)))))
(assert (forall ((?v0 S14)) (= (= (f20 f54 ?v0) f55) false)))
(assert (forall ((?v0 S14)) (= (= f55 (f20 f54 ?v0)) false)))
(assert (forall ((?v0 S14) (?v1 S14)) (= (= (f20 f54 ?v0) (f20 f53 ?v1)) false)))
(assert (forall ((?v0 S14) (?v1 S14)) (= (= (f20 f53 ?v0) (f20 f54 ?v1)) false)))
(assert (forall ((?v0 S14)) (= (= (f20 f53 ?v0) f55) (= ?v0 f55))))
(assert (forall ((?v0 S14)) (= (= f55 (f20 f53 ?v0)) (= f55 ?v0))))
(assert (= (f20 f53 f55) f55))
(assert (= (f58 f59 f55) f40))
(assert (= (f51 f52 f55) f42))
(assert (= (f20 f61 f55) f44))
(assert (= (f58 f59 f55) f40))
(assert (= (f20 f61 f55) f44))
(assert (= f40 (f58 f59 f55)))
(assert (= f44 (f20 f61 f55)))
(assert (forall ((?v0 S14)) (= (f20 (f21 f22 (f20 f61 f55)) ?v0) ?v0)))
(assert (forall ((?v0 S4)) (= (f7 (f8 f9 (f58 f59 f55)) ?v0) ?v0)))
(assert (forall ((?v0 S14)) (= (f20 (f21 f22 ?v0) (f20 f61 f55)) ?v0)))
(assert (forall ((?v0 S4)) (= (f7 (f8 f9 ?v0) (f58 f59 f55)) ?v0)))
(assert (= (f51 f52 f55) f42))
(assert (= f42 (f51 f52 f55)))
(assert (forall ((?v0 S9) (?v1 S3) (?v2 S3) (?v3 S3)) (= (f65 (f66 f67 ?v0) (f49 (f50 (f10 (f14 f15 ?v1) ?v2)) (f10 (f14 f15 ?v3) ?v2))) (f65 (f66 f67 (f14 (f30 f31 ?v0) ?v2)) (f49 (f50 ?v1) ?v3)))))
(assert (forall ((?v0 S13) (?v1 S3) (?v2 S3) (?v3 S3)) (= (f62 (f63 f64 ?v0) (f49 (f50 (f10 (f14 f15 ?v1) ?v2)) (f10 (f14 f15 ?v3) ?v2))) (f62 (f63 f64 (f32 (f33 f34 ?v0) ?v2)) (f49 (f50 ?v1) ?v3)))))
(assert (forall ((?v0 S19) (?v1 S3) (?v2 S3) (?v3 S3)) (= (f47 ?v0 (f49 (f50 (f10 (f14 f15 ?v1) ?v2)) (f10 (f14 f15 ?v3) ?v2))) (f47 (f35 (f36 ?v0) ?v2) (f49 (f50 ?v1) ?v3)))))
(assert (forall ((?v0 S2) (?v1 S3) (?v2 S3) (?v3 S3)) (= (f68 (f69 f70 ?v0) (f49 (f50 (f10 (f14 f15 ?v1) ?v2)) (f10 (f14 f15 ?v3) ?v2))) (f68 (f69 f70 (f27 (f28 f29 ?v0) ?v2)) (f49 (f50 ?v1) ?v3)))))
(assert (forall ((?v0 S19) (?v1 S19) (?v2 S29)) (= (f47 (f24 (f25 ?v0) ?v1) ?v2) (f26 (f47 ?v0 ?v2) (f47 ?v1 ?v2)))))
(assert (forall ((?v0 S2) (?v1 S2) (?v2 S29)) (= (f68 (f69 f70 (f4 (f5 f6 ?v0) ?v1)) ?v2) (f7 (f8 f9 (f68 (f69 f70 ?v0) ?v2)) (f68 (f69 f70 ?v1) ?v2)))))
(assert (forall ((?v0 S13) (?v1 S13) (?v2 S29)) (= (f62 (f63 f64 (f17 (f18 f19 ?v0) ?v1)) ?v2) (f20 (f21 f22 (f62 (f63 f64 ?v0) ?v2)) (f62 (f63 f64 ?v1) ?v2)))))
(assert (forall ((?v0 S9) (?v1 S9) (?v2 S29)) (= (f65 (f66 f67 (f11 (f12 f13 ?v0) ?v1)) ?v2) (f10 (f14 f15 (f65 (f66 f67 ?v0) ?v2)) (f65 (f66 f67 ?v1) ?v2)))))
(assert (forall ((?v0 S29)) (= (f47 f45 ?v0) f46)))
(assert (forall ((?v0 S29)) (= (f68 (f69 f70 f39) ?v0) f40)))
(assert (forall ((?v0 S29)) (= (f65 (f66 f67 f41) ?v0) f42)))
(assert (forall ((?v0 S29)) (= (f62 (f63 f64 f43) ?v0) f44)))
(assert (forall ((?v0 S3) (?v1 S3)) (=> (= (f10 (f14 f15 ?v0) ?v1) ?v0) (= ?v1 f42))))
(assert (forall ((?v0 S3) (?v1 S3)) (= (= (f10 (f14 f15 ?v0) ?v1) f42) (and (= ?v0 f42) (= ?v1 f42)))))
(assert (forall ((?v0 S3)) (= (f10 (f14 f15 ?v0) f42) ?v0)))
(assert (forall ((?v0 S3)) (= (f10 (f14 f15 f42) ?v0) ?v0)))
(assert (= f75 (f71 f72 (f20 f54 f55))))
(assert (= f76 (f73 f74 (f20 f54 f55))))
(check-sat)
(exit)
